50
50 50
1 40 514
2 40 130
3 39 813
4 38 313
5 38 913
6 38 43
7 37 874
8 37 815
9 35 440
10 35 357
11 34 853
12 33 711
13 32 714
14 30 355
15 30 683
16 29 850
17 28 112
18 28 481
19 26 550
20 26 174
21 26 366
22 25 437
23 25 850
24 25 749
25 23 256
26 19 238
27 19 672
28 19 258
29 18 34
30 17 153
31 15 161
32 15 205
33 15 318
34 14 693
35 14 604
36 13 927
37 12 821
38 12 336
39 12 678
40 12 200
41 10 462
42 9 410
43 9 738
44 9 910
45 9 329
46 9 840
47 8 828
48 8 496
49 6 260
50 5 263
